\* grasp *\
Maximize
OBJ: 2 p_0_0 + 2 p_1_0 + 2 p_2_0 + 2 p_3_0
Subject To
_C1: p_0_0 <= 1
_C10: - 50 wx_0 - 50 wy_0 - y_0 + y__0 = 0
_C100: - y_2 + y__1 + 1000000 yn_2_1 <= 1000000
_C101: - z_2 + z__1 + 1000000 zn_2_1 <= 1000000
_C102: - x_3 + x__0 + 1000000 xn_3_0 <= 1000000
_C103: - y_3 + y__0 + 1000000 yn_3_0 <= 1000000
_C104: - z_3 + z__0 + 1000000 zn_3_0 <= 1000000
_C105: - x_3 + x__1 + 1000000 xn_3_1 <= 1000000
_C106: - y_3 + y__1 + 1000000 yn_3_1 <= 1000000
_C107: - z_3 + z__1 + 1000000 zn_3_1 <= 1000000
_C108: - x_3 + x__2 + 1000000 xn_3_2 <= 1000000
_C109: - y_3 + y__2 + 1000000 yn_3_2 <= 1000000
_C11: - z_0 + z__0 = 50
_C110: - z_3 + z__2 + 1000000 zn_3_2 <= 1000000
_C111: - x_1 + x__0 + 1000000 xn_1_0 <= 1000000
_C112: - y_1 + y__0 + 1000000 yn_1_0 <= 1000000
_C113: - z_1 + z__0 + 1000000 zn_1_0 <= 1000000
_C114: - x_2 + x__0 + 1000000 xn_2_0 <= 1000000
_C115: - y_2 + y__0 + 1000000 yn_2_0 <= 1000000
_C116: - z_2 + z__0 + 1000000 zn_2_0 <= 1000000
_C117: - x_2 + x__1 + 1000000 xn_2_1 <= 1000000
_C118: - y_2 + y__1 + 1000000 yn_2_1 <= 1000000
_C119: - z_2 + z__1 + 1000000 zn_2_1 <= 1000000
_C12: - 50 lx_1 - 50 ly_1 - x_1 + x__1 = 0
_C120: - x_3 + x__0 + 1000000 xn_3_0 <= 1000000
_C121: - y_3 + y__0 + 1000000 yn_3_0 <= 1000000
_C122: - z_3 + z__0 + 1000000 zn_3_0 <= 1000000
_C123: - x_3 + x__1 + 1000000 xn_3_1 <= 1000000
_C124: - y_3 + y__1 + 1000000 yn_3_1 <= 1000000
_C125: - z_3 + z__1 + 1000000 zn_3_1 <= 1000000
_C126: - x_3 + x__2 + 1000000 xn_3_2 <= 1000000
_C127: - y_3 + y__2 + 1000000 yn_3_2 <= 1000000
_C128: - z_3 + z__2 + 1000000 zn_3_2 <= 1000000
_C129: absX_1_0 + x_0 - x_1 >= 0
_C13: - 50 wx_1 - 50 wy_1 - y_1 + y__1 = 0
_C130: absY_1_0 + y_0 - y_1 >= 0
_C131: absZ_1_0 + z_0 - z_1 >= 0
_C132: absX_1_0 - x_0 + x__1 >= 0
_C133: absY_1_0 - y_0 + y__1 >= 0
_C134: absZ_1_0 - z_0 + z__1 >= 0
_C135: absX_1_0 - x__1 + 1000000 xp_1_0 <= 1000000
_C136: absY_1_0 - y__1 + 1000000 yp_1_0 <= 1000000
_C137: absZ_1_0 - z__1 + 1000000 zp_1_0 <= 1000000
_C138: absX_0_1 - x__0 + 1000000 xn_1_0 <= 1000000
_C139: absY_0_1 - y__0 + 1000000 yn_1_0 <= 1000000
_C14: - z_1 + z__1 = 50
_C140: absZ_0_1 - z__0 + 1000000 zn_1_0 <= 1000000
_C141: absX_2_0 + x_0 - x_2 >= 0
_C142: absY_2_0 + y_0 - y_2 >= 0
_C143: absZ_2_0 + z_0 - z_2 >= 0
_C144: absX_2_0 - x_0 + x__2 >= 0
_C145: absY_2_0 - y_0 + y__2 >= 0
_C146: absZ_2_0 - z_0 + z__2 >= 0
_C147: absX_2_0 - x__2 + 1000000 xp_2_0 <= 1000000
_C148: absY_2_0 - y__2 + 1000000 yp_2_0 <= 1000000
_C149: absZ_2_0 - z__2 + 1000000 zp_2_0 <= 1000000
_C15: - 50 lx_2 - 50 ly_2 - x_2 + x__2 = 0
_C150: absX_0_2 - x__0 + 1000000 xn_2_0 <= 1000000
_C151: absY_0_2 - y__0 + 1000000 yn_2_0 <= 1000000
_C152: absZ_0_2 - z__0 + 1000000 zn_2_0 <= 1000000
_C153: absX_2_1 + x_1 - x_2 >= 0
_C154: absY_2_1 + y_1 - y_2 >= 0
_C155: absZ_2_1 + z_1 - z_2 >= 0
_C156: absX_2_1 - x_1 + x__2 >= 0
_C157: absY_2_1 - y_1 + y__2 >= 0
_C158: absZ_2_1 - z_1 + z__2 >= 0
_C159: absX_2_1 - x__2 + 1000000 xp_2_1 <= 1000000
_C16: - 50 wx_2 - 50 wy_2 - y_2 + y__2 = 0
_C160: absY_2_1 - y__2 + 1000000 yp_2_1 <= 1000000
_C161: absZ_2_1 - z__2 + 1000000 zp_2_1 <= 1000000
_C162: absX_1_2 - x__1 + 1000000 xn_2_1 <= 1000000
_C163: absY_1_2 - y__1 + 1000000 yn_2_1 <= 1000000
_C164: absZ_1_2 - z__1 + 1000000 zn_2_1 <= 1000000
_C165: absX_3_0 + x_0 - x_3 >= 0
_C166: absY_3_0 + y_0 - y_3 >= 0
_C167: absZ_3_0 + z_0 - z_3 >= 0
_C168: absX_3_0 - x_0 + x__3 >= 0
_C169: absY_3_0 - y_0 + y__3 >= 0
_C17: - z_2 + z__2 = 50
_C170: absZ_3_0 - z_0 + z__3 >= 0
_C171: absX_3_0 - x__3 + 1000000 xp_3_0 <= 1000000
_C172: absY_3_0 - y__3 + 1000000 yp_3_0 <= 1000000
_C173: absZ_3_0 - z__3 + 1000000 zp_3_0 <= 1000000
_C174: absX_0_3 - x__0 + 1000000 xn_3_0 <= 1000000
_C175: absY_0_3 - y__0 + 1000000 yn_3_0 <= 1000000
_C176: absZ_0_3 - z__0 + 1000000 zn_3_0 <= 1000000
_C177: absX_3_1 + x_1 - x_3 >= 0
_C178: absY_3_1 + y_1 - y_3 >= 0
_C179: absZ_3_1 + z_1 - z_3 >= 0
_C18: - 50 lx_3 - 50 ly_3 - x_3 + x__3 = 0
_C180: absX_3_1 - x_1 + x__3 >= 0
_C181: absY_3_1 - y_1 + y__3 >= 0
_C182: absZ_3_1 - z_1 + z__3 >= 0
_C183: absX_3_1 - x__3 + 1000000 xp_3_1 <= 1000000
_C184: absY_3_1 - y__3 + 1000000 yp_3_1 <= 1000000
_C185: absZ_3_1 - z__3 + 1000000 zp_3_1 <= 1000000
_C186: absX_1_3 - x__1 + 1000000 xn_3_1 <= 1000000
_C187: absY_1_3 - y__1 + 1000000 yn_3_1 <= 1000000
_C188: absZ_1_3 - z__1 + 1000000 zn_3_1 <= 1000000
_C189: absX_3_2 + x_2 - x_3 >= 0
_C19: - 50 wx_3 - 50 wy_3 - y_3 + y__3 = 0
_C190: absY_3_2 + y_2 - y_3 >= 0
_C191: absZ_3_2 + z_2 - z_3 >= 0
_C192: absX_3_2 - x_2 + x__3 >= 0
_C193: absY_3_2 - y_2 + y__3 >= 0
_C194: absZ_3_2 - z_2 + z__3 >= 0
_C195: absX_3_2 - x__3 + 1000000 xp_3_2 <= 1000000
_C196: absY_3_2 - y__3 + 1000000 yp_3_2 <= 1000000
_C197: absZ_3_2 - z__3 + 1000000 zp_3_2 <= 1000000
_C198: absX_2_3 - x__2 + 1000000 xn_3_2 <= 1000000
_C199: absY_2_3 - y__2 + 1000000 yn_3_2 <= 1000000
_C2: p_1_0 <= 1
_C20: - z_3 + z__3 = 50
_C200: absZ_2_3 - z__2 + 1000000 zn_3_2 <= 1000000
_C201: absX_1_0 + x_0 - x_1 >= 0
_C202: absY_1_0 + y_0 - y_1 >= 0
_C203: absZ_1_0 + z_0 - z_1 >= 0
_C204: absX_1_0 - x_0 + x__1 >= 0
_C205: absY_1_0 - y_0 + y__1 >= 0
_C206: absZ_1_0 - z_0 + z__1 >= 0
_C207: absX_1_0 - x__1 + 1000000 xp_1_0 <= 1000000
_C208: absY_1_0 - y__1 + 1000000 yp_1_0 <= 1000000
_C209: absZ_1_0 - z__1 + 1000000 zp_1_0 <= 1000000
_C21: - 50 lx_0 - 50 ly_0 - x_0 + x__0 = 0
_C210: absX_0_1 - x__0 + 1000000 xn_1_0 <= 1000000
_C211: absY_0_1 - y__0 + 1000000 yn_1_0 <= 1000000
_C212: absZ_0_1 - z__0 + 1000000 zn_1_0 <= 1000000
_C213: absX_2_0 + x_0 - x_2 >= 0
_C214: absY_2_0 + y_0 - y_2 >= 0
_C215: absZ_2_0 + z_0 - z_2 >= 0
_C216: absX_2_0 - x_0 + x__2 >= 0
_C217: absY_2_0 - y_0 + y__2 >= 0
_C218: absZ_2_0 - z_0 + z__2 >= 0
_C219: absX_2_0 - x__2 + 1000000 xp_2_0 <= 1000000
_C22: - 50 wx_0 - 50 wy_0 - y_0 + y__0 = 0
_C220: absY_2_0 - y__2 + 1000000 yp_2_0 <= 1000000
_C221: absZ_2_0 - z__2 + 1000000 zp_2_0 <= 1000000
_C222: absX_0_2 - x__0 + 1000000 xn_2_0 <= 1000000
_C223: absY_0_2 - y__0 + 1000000 yn_2_0 <= 1000000
_C224: absZ_0_2 - z__0 + 1000000 zn_2_0 <= 1000000
_C225: absX_2_1 + x_1 - x_2 >= 0
_C226: absY_2_1 + y_1 - y_2 >= 0
_C227: absZ_2_1 + z_1 - z_2 >= 0
_C228: absX_2_1 - x_1 + x__2 >= 0
_C229: absY_2_1 - y_1 + y__2 >= 0
_C23: - z_0 + z__0 = 50
_C230: absZ_2_1 - z_1 + z__2 >= 0
_C231: absX_2_1 - x__2 + 1000000 xp_2_1 <= 1000000
_C232: absY_2_1 - y__2 + 1000000 yp_2_1 <= 1000000
_C233: absZ_2_1 - z__2 + 1000000 zp_2_1 <= 1000000
_C234: absX_1_2 - x__1 + 1000000 xn_2_1 <= 1000000
_C235: absY_1_2 - y__1 + 1000000 yn_2_1 <= 1000000
_C236: absZ_1_2 - z__1 + 1000000 zn_2_1 <= 1000000
_C237: absX_3_0 + x_0 - x_3 >= 0
_C238: absY_3_0 + y_0 - y_3 >= 0
_C239: absZ_3_0 + z_0 - z_3 >= 0
_C24: - 50 lx_1 - 50 ly_1 - x_1 + x__1 = 0
_C240: absX_3_0 - x_0 + x__3 >= 0
_C241: absY_3_0 - y_0 + y__3 >= 0
_C242: absZ_3_0 - z_0 + z__3 >= 0
_C243: absX_3_0 - x__3 + 1000000 xp_3_0 <= 1000000
_C244: absY_3_0 - y__3 + 1000000 yp_3_0 <= 1000000
_C245: absZ_3_0 - z__3 + 1000000 zp_3_0 <= 1000000
_C246: absX_0_3 - x__0 + 1000000 xn_3_0 <= 1000000
_C247: absY_0_3 - y__0 + 1000000 yn_3_0 <= 1000000
_C248: absZ_0_3 - z__0 + 1000000 zn_3_0 <= 1000000
_C249: absX_3_1 + x_1 - x_3 >= 0
_C25: - 50 wx_1 - 50 wy_1 - y_1 + y__1 = 0
_C250: absY_3_1 + y_1 - y_3 >= 0
_C251: absZ_3_1 + z_1 - z_3 >= 0
_C252: absX_3_1 - x_1 + x__3 >= 0
_C253: absY_3_1 - y_1 + y__3 >= 0
_C254: absZ_3_1 - z_1 + z__3 >= 0
_C255: absX_3_1 - x__3 + 1000000 xp_3_1 <= 1000000
_C256: absY_3_1 - y__3 + 1000000 yp_3_1 <= 1000000
_C257: absZ_3_1 - z__3 + 1000000 zp_3_1 <= 1000000
_C258: absX_1_3 - x__1 + 1000000 xn_3_1 <= 1000000
_C259: absY_1_3 - y__1 + 1000000 yn_3_1 <= 1000000
_C26: - z_1 + z__1 = 50
_C260: absZ_1_3 - z__1 + 1000000 zn_3_1 <= 1000000
_C261: absX_3_2 + x_2 - x_3 >= 0
_C262: absY_3_2 + y_2 - y_3 >= 0
_C263: absZ_3_2 + z_2 - z_3 >= 0
_C264: absX_3_2 - x_2 + x__3 >= 0
_C265: absY_3_2 - y_2 + y__3 >= 0
_C266: absZ_3_2 - z_2 + z__3 >= 0
_C267: absX_3_2 - x__3 + 1000000 xp_3_2 <= 1000000
_C268: absY_3_2 - y__3 + 1000000 yp_3_2 <= 1000000
_C269: absZ_3_2 - z__3 + 1000000 zp_3_2 <= 1000000
_C27: - 50 lx_2 - 50 ly_2 - x_2 + x__2 = 0
_C270: absX_2_3 - x__2 + 1000000 xn_3_2 <= 1000000
_C271: absY_2_3 - y__2 + 1000000 yn_3_2 <= 1000000
_C272: absZ_2_3 - z__2 + 1000000 zn_3_2 <= 1000000
_C273: - z_0 + z__0 >= 0
_C274: z_0 - z__0 <= 0
_C275: - z_1 + z__1 >= 0
_C276: z_1 - z__1 <= 0
_C277: - z_2 + z__2 >= 0
_C278: z_2 - z__2 <= 0
_C279: - z_3 + z__3 >= 0
_C28: - 50 wx_2 - 50 wy_2 - y_2 + y__2 = 0
_C280: z_3 - z__3 <= 0
_C281: - z_0 + z__0 >= 0
_C282: z_0 - z__0 <= 0
_C283: - z_1 + z__1 >= 0
_C284: z_1 - z__1 <= 0
_C285: - z_2 + z__2 >= 0
_C286: z_2 - z__2 <= 0
_C287: - z_3 + z__3 >= 0
_C288: z_3 - z__3 <= 0
_C289: - p_0_0 - p_1_0 + xn_1_0 + xp_1_0 + yn_1_0 + yp_1_0 + zn_1_0 + zp_1_0
 >= -1
_C29: - z_2 + z__2 = 50
_C290: - p_0_0 - p_2_0 + xn_2_0 + xp_2_0 + yn_2_0 + yp_2_0 + zn_2_0 + zp_2_0
 >= -1
_C291: - p_1_0 - p_2_0 + xn_2_1 + xp_2_1 + yn_2_1 + yp_2_1 + zn_2_1 + zp_2_1
 >= -1
_C292: - p_0_0 - p_3_0 + xn_3_0 + xp_3_0 + yn_3_0 + yp_3_0 + zn_3_0 + zp_3_0
 >= -1
_C293: - p_1_0 - p_3_0 + xn_3_1 + xp_3_1 + yn_3_1 + yp_3_1 + zn_3_1 + zp_3_1
 >= -1
_C294: - p_2_0 - p_3_0 + xn_3_2 + xp_3_2 + yn_3_2 + yp_3_2 + zn_3_2 + zp_3_2
 >= -1
_C295: - p_0_0 - p_1_0 + xn_1_0 + xp_1_0 + yn_1_0 + yp_1_0 + zn_1_0 + zp_1_0
 >= -1
_C296: - p_0_0 - p_2_0 + xn_2_0 + xp_2_0 + yn_2_0 + yp_2_0 + zn_2_0 + zp_2_0
 >= -1
_C297: - p_1_0 - p_2_0 + xn_2_1 + xp_2_1 + yn_2_1 + yp_2_1 + zn_2_1 + zp_2_1
 >= -1
_C298: - p_0_0 - p_3_0 + xn_3_0 + xp_3_0 + yn_3_0 + yp_3_0 + zn_3_0 + zp_3_0
 >= -1
_C299: - p_1_0 - p_3_0 + xn_3_1 + xp_3_1 + yn_3_1 + yp_3_1 + zn_3_1 + zp_3_1
 >= -1
_C3: p_2_0 <= 1
_C30: - 50 lx_3 - 50 ly_3 - x_3 + x__3 = 0
_C300: - p_2_0 - p_3_0 + xn_3_2 + xp_3_2 + yn_3_2 + yp_3_2 + zn_3_2 + zp_3_2
 >= -1
_C301: x_0 - x_1 >= 0
_C302: x_0 - x__1 + 1000000 zp_1_0 <= 1000000
_C303: y_0 - y_1 >= 0
_C304: y_0 - y__1 + 1000000 zp_1_0 <= 1000000
_C305: - x_1 + x__0 >= 0
_C306: x__0 - x__1 + 1000000 zp_1_0 <= 1000000
_C307: - y_1 + y__0 >= 0
_C308: y__0 - y__1 + 1000000 zp_1_0 <= 1000000
_C309: x__0 - x__1 + 1000000 zp_1_0 <= 1000000
_C31: - 50 wx_3 - 50 wy_3 - y_3 + y__3 = 0
_C310: x_0 - x_2 >= 0
_C311: x_0 - x__2 + 1000000 zp_2_0 <= 1000000
_C312: y_0 - y_2 >= 0
_C313: y_0 - y__2 + 1000000 zp_2_0 <= 1000000
_C314: - x_2 + x__0 >= 0
_C315: x__0 - x__2 + 1000000 zp_2_0 <= 1000000
_C316: - y_2 + y__0 >= 0
_C317: y__0 - y__2 + 1000000 zp_2_0 <= 1000000
_C318: x__0 - x__2 + 1000000 zp_2_0 <= 1000000
_C319: x_1 - x_2 >= 0
_C32: - z_3 + z__3 = 50
_C320: x_1 - x__2 + 1000000 zp_2_1 <= 1000000
_C321: y_1 - y_2 >= 0
_C322: y_1 - y__2 + 1000000 zp_2_1 <= 1000000
_C323: - x_2 + x__1 >= 0
_C324: x__1 - x__2 + 1000000 zp_2_1 <= 1000000
_C325: - y_2 + y__1 >= 0
_C326: y__1 - y__2 + 1000000 zp_2_1 <= 1000000
_C327: x__1 - x__2 + 1000000 zp_2_1 <= 1000000
_C328: x_0 - x_3 >= 0
_C329: x_0 - x__3 + 1000000 zp_3_0 <= 1000000
_C33: 1000000 p_0_0 + x__0 <= 1000201
_C330: y_0 - y_3 >= 0
_C331: y_0 - y__3 + 1000000 zp_3_0 <= 1000000
_C332: - x_3 + x__0 >= 0
_C333: x__0 - x__3 + 1000000 zp_3_0 <= 1000000
_C334: - y_3 + y__0 >= 0
_C335: y__0 - y__3 + 1000000 zp_3_0 <= 1000000
_C336: x__0 - x__3 + 1000000 zp_3_0 <= 1000000
_C337: x_1 - x_3 >= 0
_C338: x_1 - x__3 + 1000000 zp_3_1 <= 1000000
_C339: y_1 - y_3 >= 0
_C34: 1000000 p_0_0 + y__0 <= 1000201
_C340: y_1 - y__3 + 1000000 zp_3_1 <= 1000000
_C341: - x_3 + x__1 >= 0
_C342: x__1 - x__3 + 1000000 zp_3_1 <= 1000000
_C343: - y_3 + y__1 >= 0
_C344: y__1 - y__3 + 1000000 zp_3_1 <= 1000000
_C345: x__1 - x__3 + 1000000 zp_3_1 <= 1000000
_C346: x_2 - x_3 >= 0
_C347: x_2 - x__3 + 1000000 zp_3_2 <= 1000000
_C348: y_2 - y_3 >= 0
_C349: y_2 - y__3 + 1000000 zp_3_2 <= 1000000
_C35: 1000000 p_0_0 + z__0 <= 1000300
_C350: - x_3 + x__2 >= 0
_C351: x__2 - x__3 + 1000000 zp_3_2 <= 1000000
_C352: - y_3 + y__2 >= 0
_C353: y__2 - y__3 + 1000000 zp_3_2 <= 1000000
_C354: x__2 - x__3 + 1000000 zp_3_2 <= 1000000
_C355: x_0 - x_1 >= 0
_C356: x_0 - x__1 + 1000000 zp_1_0 <= 1000000
_C357: y_0 - y_1 >= 0
_C358: y_0 - y__1 + 1000000 zp_1_0 <= 1000000
_C359: - x_1 + x__0 >= 0
_C36: 1000000 p_1_0 + x__1 <= 1000201
_C360: x__0 - x__1 + 1000000 zp_1_0 <= 1000000
_C361: - y_1 + y__0 >= 0
_C362: y__0 - y__1 + 1000000 zp_1_0 <= 1000000
_C363: x__0 - x__1 + 1000000 zp_1_0 <= 1000000
_C364: x_0 - x_2 >= 0
_C365: x_0 - x__2 + 1000000 zp_2_0 <= 1000000
_C366: y_0 - y_2 >= 0
_C367: y_0 - y__2 + 1000000 zp_2_0 <= 1000000
_C368: - x_2 + x__0 >= 0
_C369: x__0 - x__2 + 1000000 zp_2_0 <= 1000000
_C37: 1000000 p_1_0 + y__1 <= 1000201
_C370: - y_2 + y__0 >= 0
_C371: y__0 - y__2 + 1000000 zp_2_0 <= 1000000
_C372: x__0 - x__2 + 1000000 zp_2_0 <= 1000000
_C373: x_1 - x_2 >= 0
_C374: x_1 - x__2 + 1000000 zp_2_1 <= 1000000
_C375: y_1 - y_2 >= 0
_C376: y_1 - y__2 + 1000000 zp_2_1 <= 1000000
_C377: - x_2 + x__1 >= 0
_C378: x__1 - x__2 + 1000000 zp_2_1 <= 1000000
_C379: - y_2 + y__1 >= 0
_C38: 1000000 p_1_0 + z__1 <= 1000300
_C380: y__1 - y__2 + 1000000 zp_2_1 <= 1000000
_C381: x__1 - x__2 + 1000000 zp_2_1 <= 1000000
_C382: x_0 - x_3 >= 0
_C383: x_0 - x__3 + 1000000 zp_3_0 <= 1000000
_C384: y_0 - y_3 >= 0
_C385: y_0 - y__3 + 1000000 zp_3_0 <= 1000000
_C386: - x_3 + x__0 >= 0
_C387: x__0 - x__3 + 1000000 zp_3_0 <= 1000000
_C388: - y_3 + y__0 >= 0
_C389: y__0 - y__3 + 1000000 zp_3_0 <= 1000000
_C39: 1000000 p_2_0 + x__2 <= 1000201
_C390: x__0 - x__3 + 1000000 zp_3_0 <= 1000000
_C391: x_1 - x_3 >= 0
_C392: x_1 - x__3 + 1000000 zp_3_1 <= 1000000
_C393: y_1 - y_3 >= 0
_C394: y_1 - y__3 + 1000000 zp_3_1 <= 1000000
_C395: - x_3 + x__1 >= 0
_C396: x__1 - x__3 + 1000000 zp_3_1 <= 1000000
_C397: - y_3 + y__1 >= 0
_C398: y__1 - y__3 + 1000000 zp_3_1 <= 1000000
_C399: x__1 - x__3 + 1000000 zp_3_1 <= 1000000
_C4: p_3_0 <= 1
_C40: 1000000 p_2_0 + y__2 <= 1000201
_C400: x_2 - x_3 >= 0
_C401: x_2 - x__3 + 1000000 zp_3_2 <= 1000000
_C402: y_2 - y_3 >= 0
_C403: y_2 - y__3 + 1000000 zp_3_2 <= 1000000
_C404: - x_3 + x__2 >= 0
_C405: x__2 - x__3 + 1000000 zp_3_2 <= 1000000
_C406: - y_3 + y__2 >= 0
_C407: y__2 - y__3 + 1000000 zp_3_2 <= 1000000
_C408: x__2 - x__3 + 1000000 zp_3_2 <= 1000000
_C409: lx_0 + ly_0 = 1
_C41: 1000000 p_2_0 + z__2 <= 1000300
_C410: lx_0 + wx_0 = 1
_C411: wx_0 + wy_0 = 1
_C412: ly_0 + wy_0 = 1
_C413: lx_1 + ly_1 = 1
_C414: lx_1 + wx_1 = 1
_C415: wx_1 + wy_1 = 1
_C416: ly_1 + wy_1 = 1
_C417: lx_2 + ly_2 = 1
_C418: lx_2 + wx_2 = 1
_C419: wx_2 + wy_2 = 1
_C42: 1000000 p_3_0 + x__3 <= 1000201
_C420: ly_2 + wy_2 = 1
_C421: lx_3 + ly_3 = 1
_C422: lx_3 + wx_3 = 1
_C423: wx_3 + wy_3 = 1
_C424: ly_3 + wy_3 = 1
_C425: lx_0 + ly_0 = 1
_C426: lx_0 + wx_0 = 1
_C427: wx_0 + wy_0 = 1
_C428: ly_0 + wy_0 = 1
_C429: lx_1 + ly_1 = 1
_C43: 1000000 p_3_0 + y__3 <= 1000201
_C430: lx_1 + wx_1 = 1
_C431: wx_1 + wy_1 = 1
_C432: ly_1 + wy_1 = 1
_C433: lx_2 + ly_2 = 1
_C434: lx_2 + wx_2 = 1
_C435: wx_2 + wy_2 = 1
_C436: ly_2 + wy_2 = 1
_C437: lx_3 + ly_3 = 1
_C438: lx_3 + wx_3 = 1
_C439: wx_3 + wy_3 = 1
_C44: 1000000 p_3_0 + z__3 <= 1000300
_C440: ly_3 + wy_3 = 1
_C441: 200 p_0_0 + 200 p_1_0 + 200 p_2_0 + 200 p_3_0 <= 40000
_C442: - absL_0 + gx_0 <= 100.5
_C443: - absL_0 - gx_0 <= -100.5
_C444: - absW_0 + gy_0 <= 100.5
_C445: - absW_0 - gy_0 <= -100.5
_C446: - absH_0 + gz_0 <= 0
_C447: - absH_0 - gz_0 <= 0
_C448: absL_0 + exn_0 - exp_0 = 0
_C449: absW_0 + eyn_0 - eyp_0 = 0
_C45: 1000000 p_0_0 + x__0 <= 1000201
_C450: absH_0 + ezn_0 - ezp_0 = 0
_C451: d_0_0 - gx_0 - 1000000 p_0_0 >= -1000000
_C452: d_0_0 - 1000000 p_0_0 <= 0
_C453: d_0_0 - gx_0 <= 0
_C454: e_0_0 - 1000000 p_0_0 - x_0 >= -1000000
_C455: e_0_0 - 1000000 p_0_0 <= 0
_C456: e_0_0 - x_0 <= 0
_C457: b_0_0 - lx_0 <= 0
_C458: b_0_0 - p_0_0 <= 0
_C459: b_0_0 - lx_0 - p_0_0 >= -1
_C46: 1000000 p_0_0 + y__0 <= 1000201
_C460: c_0_0 - wx_0 <= 0
_C461: c_0_0 - p_0_0 <= 0
_C462: c_0_0 - p_0_0 - wx_0 >= -1
_C463: d_1_0 - gx_0 - 1000000 p_1_0 >= -1000000
_C464: d_1_0 - 1000000 p_1_0 <= 0
_C465: d_1_0 - gx_0 <= 0
_C466: e_1_0 - 1000000 p_1_0 - x_1 >= -1000000
_C467: e_1_0 - 1000000 p_1_0 <= 0
_C468: e_1_0 - x_1 <= 0
_C469: b_1_0 - lx_1 <= 0
_C47: 1000000 p_0_0 + z__0 <= 1000300
_C470: b_1_0 - p_1_0 <= 0
_C471: b_1_0 - lx_1 - p_1_0 >= -1
_C472: c_1_0 - wx_1 <= 0
_C473: c_1_0 - p_1_0 <= 0
_C474: c_1_0 - p_1_0 - wx_1 >= -1
_C475: d_2_0 - gx_0 - 1000000 p_2_0 >= -1000000
_C476: d_2_0 - 1000000 p_2_0 <= 0
_C477: d_2_0 - gx_0 <= 0
_C478: e_2_0 - 1000000 p_2_0 - x_2 >= -1000000
_C479: e_2_0 - 1000000 p_2_0 <= 0
_C48: 1000000 p_1_0 + x__1 <= 1000201
_C480: e_2_0 - x_2 <= 0
_C481: b_2_0 - lx_2 <= 0
_C482: b_2_0 - p_2_0 <= 0
_C483: b_2_0 - lx_2 - p_2_0 >= -1
_C484: c_2_0 - wx_2 <= 0
_C485: c_2_0 - p_2_0 <= 0
_C486: c_2_0 - p_2_0 - wx_2 >= -1
_C487: d_3_0 - gx_0 - 1000000 p_3_0 >= -1000000
_C488: d_3_0 - 1000000 p_3_0 <= 0
_C489: d_3_0 - gx_0 <= 0
_C49: 1000000 p_1_0 + y__1 <= 1000201
_C490: e_3_0 - 1000000 p_3_0 - x_3 >= -1000000
_C491: e_3_0 - 1000000 p_3_0 <= 0
_C492: e_3_0 - x_3 <= 0
_C493: b_3_0 - lx_3 <= 0
_C494: b_3_0 - p_3_0 <= 0
_C495: b_3_0 - lx_3 - p_3_0 >= -1
_C496: c_3_0 - wx_3 <= 0
_C497: c_3_0 - p_3_0 <= 0
_C498: c_3_0 - p_3_0 - wx_3 >= -1
_C499: d_0_0 - gx_0 - 1000000 p_0_0 >= -1000000
_C5: p_0_0 <= 1
_C50: 1000000 p_1_0 + z__1 <= 1000300
_C500: d_0_0 - 1000000 p_0_0 <= 0
_C501: d_0_0 - gx_0 <= 0
_C502: e_0_0 - 1000000 p_0_0 - x_0 >= -1000000
_C503: e_0_0 - 1000000 p_0_0 <= 0
_C504: e_0_0 - x_0 <= 0
_C505: b_0_0 - lx_0 <= 0
_C506: b_0_0 - p_0_0 <= 0
_C507: b_0_0 - lx_0 - p_0_0 >= -1
_C508: c_0_0 - wx_0 <= 0
_C509: c_0_0 - p_0_0 <= 0
_C51: 1000000 p_2_0 + x__2 <= 1000201
_C510: c_0_0 - p_0_0 - wx_0 >= -1
_C511: d_1_0 - gx_0 - 1000000 p_1_0 >= -1000000
_C512: d_1_0 - 1000000 p_1_0 <= 0
_C513: d_1_0 - gx_0 <= 0
_C514: e_1_0 - 1000000 p_1_0 - x_1 >= -1000000
_C515: e_1_0 - 1000000 p_1_0 <= 0
_C516: e_1_0 - x_1 <= 0
_C517: b_1_0 - lx_1 <= 0
_C518: b_1_0 - p_1_0 <= 0
_C519: b_1_0 - lx_1 - p_1_0 >= -1
_C52: 1000000 p_2_0 + y__2 <= 1000201
_C520: c_1_0 - wx_1 <= 0
_C521: c_1_0 - p_1_0 <= 0
_C522: c_1_0 - p_1_0 - wx_1 >= -1
_C523: d_2_0 - gx_0 - 1000000 p_2_0 >= -1000000
_C524: d_2_0 - 1000000 p_2_0 <= 0
_C525: d_2_0 - gx_0 <= 0
_C526: e_2_0 - 1000000 p_2_0 - x_2 >= -1000000
_C527: e_2_0 - 1000000 p_2_0 <= 0
_C528: e_2_0 - x_2 <= 0
_C529: b_2_0 - lx_2 <= 0
_C53: 1000000 p_2_0 + z__2 <= 1000300
_C530: b_2_0 - p_2_0 <= 0
_C531: b_2_0 - lx_2 - p_2_0 >= -1
_C532: c_2_0 - wx_2 <= 0
_C533: c_2_0 - p_2_0 <= 0
_C534: c_2_0 - p_2_0 - wx_2 >= -1
_C535: d_3_0 - gx_0 - 1000000 p_3_0 >= -1000000
_C536: d_3_0 - 1000000 p_3_0 <= 0
_C537: d_3_0 - gx_0 <= 0
_C538: e_3_0 - 1000000 p_3_0 - x_3 >= -1000000
_C539: e_3_0 - 1000000 p_3_0 <= 0
_C54: 1000000 p_3_0 + x__3 <= 1000201
_C540: e_3_0 - x_3 <= 0
_C541: b_3_0 - lx_3 <= 0
_C542: b_3_0 - p_3_0 <= 0
_C543: b_3_0 - lx_3 - p_3_0 >= -1
_C544: c_3_0 - wx_3 <= 0
_C545: c_3_0 - p_3_0 <= 0
_C546: c_3_0 - p_3_0 - wx_3 >= -1
_C547: - 5000 b_0_0 - 5000 b_1_0 - 5000 b_2_0 - 5000 b_3_0 - 5000 c_0_0
 - 5000 c_1_0 - 5000 c_2_0 - 5000 c_3_0 + 200 d_0_0 + 200 d_1_0 + 200 d_2_0
 + 200 d_3_0 - 200 e_0_0 - 200 e_1_0 - 200 e_2_0 - 200 e_3_0 = 0
_C548: - gy_0 - 1000000 p_0_0 + t_0_0 >= -1000000
_C549: - 1000000 p_0_0 + t_0_0 <= 0
_C55: 1000000 p_3_0 + y__3 <= 1000201
_C550: - gy_0 + t_0_0 <= 0
_C551: - 1000000 p_0_0 + v_0_0 - y_0 >= -1000000
_C552: - 1000000 p_0_0 + v_0_0 <= 0
_C553: v_0_0 - y_0 <= 0
_C554: - ly_0 + r_0_0 <= 0
_C555: - p_0_0 + r_0_0 <= 0
_C556: - ly_0 - p_0_0 + r_0_0 >= -1
_C557: s_0_0 - wy_0 <= 0
_C558: - p_0_0 + s_0_0 <= 0
_C559: - p_0_0 + s_0_0 - wy_0 >= -1
_C56: 1000000 p_3_0 + z__3 <= 1000300
_C560: - gy_0 - 1000000 p_1_0 + t_1_0 >= -1000000
_C561: - 1000000 p_1_0 + t_1_0 <= 0
_C562: - gy_0 + t_1_0 <= 0
_C563: - 1000000 p_1_0 + v_1_0 - y_1 >= -1000000
_C564: - 1000000 p_1_0 + v_1_0 <= 0
_C565: v_1_0 - y_1 <= 0
_C566: - ly_1 + r_1_0 <= 0
_C567: - p_1_0 + r_1_0 <= 0
_C568: - ly_1 - p_1_0 + r_1_0 >= -1
_C569: s_1_0 - wy_1 <= 0
_C57: - x_0 + x__1 + 1000000 xp_1_0 <= 1000000
_C570: - p_1_0 + s_1_0 <= 0
_C571: - p_1_0 + s_1_0 - wy_1 >= -1
_C572: - gy_0 - 1000000 p_2_0 + t_2_0 >= -1000000
_C573: - 1000000 p_2_0 + t_2_0 <= 0
_C574: - gy_0 + t_2_0 <= 0
_C575: - 1000000 p_2_0 + v_2_0 - y_2 >= -1000000
_C576: - 1000000 p_2_0 + v_2_0 <= 0
_C577: v_2_0 - y_2 <= 0
_C578: - ly_2 + r_2_0 <= 0
_C579: - p_2_0 + r_2_0 <= 0
_C58: - y_0 + y__1 + 1000000 yp_1_0 <= 1000000
_C580: - ly_2 - p_2_0 + r_2_0 >= -1
_C581: s_2_0 - wy_2 <= 0
_C582: - p_2_0 + s_2_0 <= 0
_C583: - p_2_0 + s_2_0 - wy_2 >= -1
_C584: - gy_0 - 1000000 p_3_0 + t_3_0 >= -1000000
_C585: - 1000000 p_3_0 + t_3_0 <= 0
_C586: - gy_0 + t_3_0 <= 0
_C587: - 1000000 p_3_0 + v_3_0 - y_3 >= -1000000
_C588: - 1000000 p_3_0 + v_3_0 <= 0
_C589: v_3_0 - y_3 <= 0
_C59: - z_0 + z__1 + 1000000 zp_1_0 <= 1000000
_C590: - ly_3 + r_3_0 <= 0
_C591: - p_3_0 + r_3_0 <= 0
_C592: - ly_3 - p_3_0 + r_3_0 >= -1
_C593: s_3_0 - wy_3 <= 0
_C594: - p_3_0 + s_3_0 <= 0
_C595: - p_3_0 + s_3_0 - wy_3 >= -1
_C596: - gy_0 - 1000000 p_0_0 + t_0_0 >= -1000000
_C597: - 1000000 p_0_0 + t_0_0 <= 0
_C598: - gy_0 + t_0_0 <= 0
_C599: - 1000000 p_0_0 + v_0_0 - y_0 >= -1000000
_C6: p_1_0 <= 1
_C60: - x_0 + x__2 + 1000000 xp_2_0 <= 1000000
_C600: - 1000000 p_0_0 + v_0_0 <= 0
_C601: v_0_0 - y_0 <= 0
_C602: - ly_0 + r_0_0 <= 0
_C603: - p_0_0 + r_0_0 <= 0
_C604: - ly_0 - p_0_0 + r_0_0 >= -1
_C605: s_0_0 - wy_0 <= 0
_C606: - p_0_0 + s_0_0 <= 0
_C607: - p_0_0 + s_0_0 - wy_0 >= -1
_C608: - gy_0 - 1000000 p_1_0 + t_1_0 >= -1000000
_C609: - 1000000 p_1_0 + t_1_0 <= 0
_C61: - y_0 + y__2 + 1000000 yp_2_0 <= 1000000
_C610: - gy_0 + t_1_0 <= 0
_C611: - 1000000 p_1_0 + v_1_0 - y_1 >= -1000000
_C612: - 1000000 p_1_0 + v_1_0 <= 0
_C613: v_1_0 - y_1 <= 0
_C614: - ly_1 + r_1_0 <= 0
_C615: - p_1_0 + r_1_0 <= 0
_C616: - ly_1 - p_1_0 + r_1_0 >= -1
_C617: s_1_0 - wy_1 <= 0
_C618: - p_1_0 + s_1_0 <= 0
_C619: - p_1_0 + s_1_0 - wy_1 >= -1
_C62: - z_0 + z__2 + 1000000 zp_2_0 <= 1000000
_C620: - gy_0 - 1000000 p_2_0 + t_2_0 >= -1000000
_C621: - 1000000 p_2_0 + t_2_0 <= 0
_C622: - gy_0 + t_2_0 <= 0
_C623: - 1000000 p_2_0 + v_2_0 - y_2 >= -1000000
_C624: - 1000000 p_2_0 + v_2_0 <= 0
_C625: v_2_0 - y_2 <= 0
_C626: - ly_2 + r_2_0 <= 0
_C627: - p_2_0 + r_2_0 <= 0
_C628: - ly_2 - p_2_0 + r_2_0 >= -1
_C629: s_2_0 - wy_2 <= 0
_C63: - x_1 + x__2 + 1000000 xp_2_1 <= 1000000
_C630: - p_2_0 + s_2_0 <= 0
_C631: - p_2_0 + s_2_0 - wy_2 >= -1
_C632: - gy_0 - 1000000 p_3_0 + t_3_0 >= -1000000
_C633: - 1000000 p_3_0 + t_3_0 <= 0
_C634: - gy_0 + t_3_0 <= 0
_C635: - 1000000 p_3_0 + v_3_0 - y_3 >= -1000000
_C636: - 1000000 p_3_0 + v_3_0 <= 0
_C637: v_3_0 - y_3 <= 0
_C638: - ly_3 + r_3_0 <= 0
_C639: - p_3_0 + r_3_0 <= 0
_C64: - y_1 + y__2 + 1000000 yp_2_1 <= 1000000
_C640: - ly_3 - p_3_0 + r_3_0 >= -1
_C641: s_3_0 - wy_3 <= 0
_C642: - p_3_0 + s_3_0 <= 0
_C643: - p_3_0 + s_3_0 - wy_3 >= -1
_C644: - 5000 r_0_0 - 5000 r_1_0 - 5000 r_2_0 - 5000 r_3_0 - 5000 s_0_0
 - 5000 s_1_0 - 5000 s_2_0 - 5000 s_3_0 + 200 t_0_0 + 200 t_1_0 + 200 t_2_0
 + 200 t_3_0 - 200 v_0_0 - 200 v_1_0 - 200 v_2_0 - 200 v_3_0 = 0
_C645: - gz_0 + m_0_0 - 1000000 p_0_0 >= -1000000
_C646: m_0_0 - 1000000 p_0_0 <= 0
_C647: - gz_0 + m_0_0 <= 0
_C648: n_0_0 - 1000000 p_0_0 - z_0 >= -1000000
_C649: n_0_0 - 1000000 p_0_0 <= 0
_C65: - z_1 + z__2 + 1000000 zp_2_1 <= 1000000
_C650: n_0_0 - z_0 <= 0
_C651: - gz_0 + m_1_0 - 1000000 p_1_0 >= -1000000
_C652: m_1_0 - 1000000 p_1_0 <= 0
_C653: - gz_0 + m_1_0 <= 0
_C654: n_1_0 - 1000000 p_1_0 - z_1 >= -1000000
_C655: n_1_0 - 1000000 p_1_0 <= 0
_C656: n_1_0 - z_1 <= 0
_C657: - gz_0 + m_2_0 - 1000000 p_2_0 >= -1000000
_C658: m_2_0 - 1000000 p_2_0 <= 0
_C659: - gz_0 + m_2_0 <= 0
_C66: - x_0 + x__3 + 1000000 xp_3_0 <= 1000000
_C660: n_2_0 - 1000000 p_2_0 - z_2 >= -1000000
_C661: n_2_0 - 1000000 p_2_0 <= 0
_C662: n_2_0 - z_2 <= 0
_C663: - gz_0 + m_3_0 - 1000000 p_3_0 >= -1000000
_C664: m_3_0 - 1000000 p_3_0 <= 0
_C665: - gz_0 + m_3_0 <= 0
_C666: n_3_0 - 1000000 p_3_0 - z_3 >= -1000000
_C667: n_3_0 - 1000000 p_3_0 <= 0
_C668: n_3_0 - z_3 <= 0
_C669: - gz_0 + m_0_0 - 1000000 p_0_0 >= -1000000
_C67: - y_0 + y__3 + 1000000 yp_3_0 <= 1000000
_C670: m_0_0 - 1000000 p_0_0 <= 0
_C671: - gz_0 + m_0_0 <= 0
_C672: n_0_0 - 1000000 p_0_0 - z_0 >= -1000000
_C673: n_0_0 - 1000000 p_0_0 <= 0
_C674: n_0_0 - z_0 <= 0
_C675: - gz_0 + m_1_0 - 1000000 p_1_0 >= -1000000
_C676: m_1_0 - 1000000 p_1_0 <= 0
_C677: - gz_0 + m_1_0 <= 0
_C678: n_1_0 - 1000000 p_1_0 - z_1 >= -1000000
_C679: n_1_0 - 1000000 p_1_0 <= 0
_C68: - z_0 + z__3 + 1000000 zp_3_0 <= 1000000
_C680: n_1_0 - z_1 <= 0
_C681: - gz_0 + m_2_0 - 1000000 p_2_0 >= -1000000
_C682: m_2_0 - 1000000 p_2_0 <= 0
_C683: - gz_0 + m_2_0 <= 0
_C684: n_2_0 - 1000000 p_2_0 - z_2 >= -1000000
_C685: n_2_0 - 1000000 p_2_0 <= 0
_C686: n_2_0 - z_2 <= 0
_C687: - gz_0 + m_3_0 - 1000000 p_3_0 >= -1000000
_C688: m_3_0 - 1000000 p_3_0 <= 0
_C689: - gz_0 + m_3_0 <= 0
_C69: - x_1 + x__3 + 1000000 xp_3_1 <= 1000000
_C690: n_3_0 - 1000000 p_3_0 - z_3 >= -1000000
_C691: n_3_0 - 1000000 p_3_0 <= 0
_C692: n_3_0 - z_3 <= 0
_C693: 200 m_0_0 + 200 m_1_0 + 200 m_2_0 + 200 m_3_0 - 200 n_0_0 - 200 n_1_0
 - 200 n_2_0 - 200 n_3_0 - 5000 p_0_0 - 5000 p_1_0 - 5000 p_2_0 - 5000 p_3_0
 - 5000 s_0_0 - 5000 s_1_0 - 5000 s_2_0 - 5000 s_3_0 = 0
_C7: p_2_0 <= 1
_C70: - y_1 + y__3 + 1000000 yp_3_1 <= 1000000
_C71: - z_1 + z__3 + 1000000 zp_3_1 <= 1000000
_C72: - x_2 + x__3 + 1000000 xp_3_2 <= 1000000
_C73: - y_2 + y__3 + 1000000 yp_3_2 <= 1000000
_C74: - z_2 + z__3 + 1000000 zp_3_2 <= 1000000
_C75: - x_0 + x__1 + 1000000 xp_1_0 <= 1000000
_C76: - y_0 + y__1 + 1000000 yp_1_0 <= 1000000
_C77: - z_0 + z__1 + 1000000 zp_1_0 <= 1000000
_C78: - x_0 + x__2 + 1000000 xp_2_0 <= 1000000
_C79: - y_0 + y__2 + 1000000 yp_2_0 <= 1000000
_C8: p_3_0 <= 1
_C80: - z_0 + z__2 + 1000000 zp_2_0 <= 1000000
_C81: - x_1 + x__2 + 1000000 xp_2_1 <= 1000000
_C82: - y_1 + y__2 + 1000000 yp_2_1 <= 1000000
_C83: - z_1 + z__2 + 1000000 zp_2_1 <= 1000000
_C84: - x_0 + x__3 + 1000000 xp_3_0 <= 1000000
_C85: - y_0 + y__3 + 1000000 yp_3_0 <= 1000000
_C86: - z_0 + z__3 + 1000000 zp_3_0 <= 1000000
_C87: - x_1 + x__3 + 1000000 xp_3_1 <= 1000000
_C88: - y_1 + y__3 + 1000000 yp_3_1 <= 1000000
_C89: - z_1 + z__3 + 1000000 zp_3_1 <= 1000000
_C9: - 50 lx_0 - 50 ly_0 - x_0 + x__0 = 0
_C90: - x_2 + x__3 + 1000000 xp_3_2 <= 1000000
_C91: - y_2 + y__3 + 1000000 yp_3_2 <= 1000000
_C92: - z_2 + z__3 + 1000000 zp_3_2 <= 1000000
_C93: - x_1 + x__0 + 1000000 xn_1_0 <= 1000000
_C94: - y_1 + y__0 + 1000000 yn_1_0 <= 1000000
_C95: - z_1 + z__0 + 1000000 zn_1_0 <= 1000000
_C96: - x_2 + x__0 + 1000000 xn_2_0 <= 1000000
_C97: - y_2 + y__0 + 1000000 yn_2_0 <= 1000000
_C98: - z_2 + z__0 + 1000000 zn_2_0 <= 1000000
_C99: - x_2 + x__1 + 1000000 xn_2_1 <= 1000000
Binaries
b_0_0
b_1_0
b_2_0
b_3_0
c_0_0
c_1_0
c_2_0
c_3_0
lx_0
lx_1
lx_2
lx_3
ly_0
ly_1
ly_2
ly_3
p_0_0
p_1_0
p_2_0
p_3_0
wx_0
wx_1
wx_2
wx_3
wy_0
wy_1
wy_2
wy_3
xn_1_0
xn_2_0
xn_2_1
xn_3_0
xn_3_1
xn_3_2
xp_1_0
xp_2_0
xp_2_1
xp_3_0
xp_3_1
xp_3_2
yn_1_0
yn_2_0
yn_2_1
yn_3_0
yn_3_1
yn_3_2
yp_1_0
yp_2_0
yp_2_1
yp_3_0
yp_3_1
yp_3_2
zn_1_0
zn_2_0
zn_2_1
zn_3_0
zn_3_1
zn_3_2
zp_1_0
zp_2_0
zp_2_1
zp_3_0
zp_3_1
zp_3_2
End
